; ./prepared/vmt/./lustre/DRAGON_14_e3_5120_000.smt2
(set-logic HORN)


(declare-fun |state| ( Int Int Bool Bool Bool Bool Bool Bool Bool Bool Bool Bool Bool Bool Bool Bool Bool Int Int Bool Bool Int Int Int Int Int Int Int Int Int Int Int Int Int Int Int Int Int Int Int Int Int Int Int Int Int Int Int Int Int Int Int Int Int Int Int Int Int Int Int Int Int Int Int Int Bool Bool Int Int Int Int Int Bool Int Int Int Int Int Int Int Int Int Int Int Int Int Int Int Int Int Int Int Int Int Int Bool Bool Bool Bool Bool Int Int Int Int Int Bool Bool Bool Bool Bool Bool Bool ) Bool)

(assert
  (forall ( (A Int) (B Bool) (C Int) (D Int) (E Bool) (F Int) (G Int) (H Bool) (I Int) (J Int) (K Int) (L Int) (M Int) (N Int) (O Bool) (P Int) (Q Bool) (R Int) (S Bool) (T Int) (U Bool) (V Int) (W Int) (X Bool) (Y Int) (Z Int) (A1 Int) (B1 Int) (C1 Int) (D1 Int) (E1 Int) (F1 Bool) (G1 Bool) (H1 Int) (I1 Int) (J1 Int) (K1 Bool) (L1 Int) (M1 Int) (N1 Int) (O1 Int) (P1 Int) (Q1 Bool) (R1 Int) (S1 Int) (T1 Int) (U1 Bool) (V1 Int) (W1 Int) (X1 Int) (Y1 Int) (Z1 Int) (A2 Int) (B2 Bool) (C2 Bool) (D2 Int) (E2 Int) (F2 Int) (G2 Int) (H2 Int) (I2 Int) (J2 Int) (K2 Int) (L2 Int) (M2 Int) (N2 Int) (O2 Bool) (P2 Bool) (Q2 Bool) (R2 Int) (S2 Int) (T2 Int) (U2 Int) (V2 Int) (W2 Int) (X2 Int) (Y2 Bool) (Z2 Int) (A3 Int) (B3 Bool) (C3 Int) (D3 Bool) (E3 Int) (F3 Bool) (G3 Int) (H3 Bool) (I3 Int) (J3 Bool) (K3 Int) (L3 Bool) (M3 Bool) (N3 Bool) (O3 Int) (P3 Bool) (Q3 Int) (R3 Int) (S3 Int) (T3 Int) (U3 Int) (V3 Int) (W3 Int) (X3 Int) (Y3 Bool) (Z3 Int) (A4 Int) (B4 Bool) (C4 Int) (D4 Bool) (E4 Int) (F4 Int) (G4 Bool) (H4 Int) ) 
    (=>
      (and
        (let ((a!1 (= G1 (and F1 (not (<= A1 0)))))
      (a!2 (= (or (and (not B4)
                       (not P3)
                       (not Y2)
                       (not Q1)
                       (not G4)
                       (not B)
                       (not E)
                       (not H)
                       (not K1)
                       (not U1)
                       (not M3)
                       (not Y3))
                  (and (not B4)
                       (not P3)
                       (not Y2)
                       (not Q1)
                       (not G4)
                       (not B)
                       (not E)
                       (not H)
                       (not K1)
                       (not U1)
                       (not M3)
                       Y3)
                  (and (not B4)
                       (not P3)
                       (not Y2)
                       (not Q1)
                       (not G4)
                       (not B)
                       (not E)
                       (not H)
                       (not K1)
                       (not U1)
                       M3
                       (not Y3))
                  (and (not B4)
                       (not P3)
                       (not Y2)
                       (not Q1)
                       (not G4)
                       (not B)
                       (not E)
                       (not H)
                       (not K1)
                       U1
                       (not M3)
                       (not Y3))
                  (and (not B4)
                       (not P3)
                       (not Y2)
                       (not Q1)
                       (not G4)
                       (not B)
                       (not E)
                       (not H)
                       K1
                       (not U1)
                       (not M3)
                       (not Y3))
                  (and (not B4)
                       (not P3)
                       (not Y2)
                       (not Q1)
                       (not G4)
                       (not B)
                       (not E)
                       H
                       (not K1)
                       (not U1)
                       (not M3)
                       (not Y3))
                  (and (not B4)
                       (not P3)
                       (not Y2)
                       (not Q1)
                       (not G4)
                       (not B)
                       E
                       (not H)
                       (not K1)
                       (not U1)
                       (not M3)
                       (not Y3))
                  (and (not B4)
                       (not P3)
                       (not Y2)
                       (not Q1)
                       (not G4)
                       B
                       (not E)
                       (not H)
                       (not K1)
                       (not U1)
                       (not M3)
                       (not Y3))
                  (and (not B4)
                       (not P3)
                       (not Y2)
                       (not Q1)
                       G4
                       (not B)
                       (not E)
                       (not H)
                       (not K1)
                       (not U1)
                       (not M3)
                       (not Y3))
                  (and (not B4)
                       (not P3)
                       (not Y2)
                       Q1
                       (not G4)
                       (not B)
                       (not E)
                       (not H)
                       (not K1)
                       (not U1)
                       (not M3)
                       (not Y3))
                  (and (not B4)
                       (not P3)
                       Y2
                       (not Q1)
                       (not G4)
                       (not B)
                       (not E)
                       (not H)
                       (not K1)
                       (not U1)
                       (not M3)
                       (not Y3))
                  (and (not B4)
                       P3
                       (not Y2)
                       (not Q1)
                       (not G4)
                       (not B)
                       (not E)
                       (not H)
                       (not K1)
                       (not U1)
                       (not M3)
                       (not Y3))
                  (and B4
                       (not P3)
                       (not Y2)
                       (not Q1)
                       (not G4)
                       (not B)
                       (not E)
                       (not H)
                       (not K1)
                       (not U1)
                       (not M3)
                       (not Y3)))
              F1)))
  (and (= (or (not C2) (<= E2 D2)) B2)
       (= D4 (<= 2 G2))
       (= D4 P2)
       (= Q2 C2)
       (= P2 O2)
       a!1
       (= G1 Q2)
       (= M2 K)
       (= M2 L2)
       (= I2 H2)
       (= K 0)
       (= M L)
       (= B1 A1)
       (= B1 M)
       (= C1 0)
       (= C1 G2)
       (= D1 0)
       (= D1 I2)
       (= E1 0)
       (= E1 K2)
       (= H1 A1)
       (= H1 D2)
       (= G2 F2)
       (= K2 J2)
       (= N2 L)
       (= N2 E2)
       (or (not Y3) (= R3 A4))
       (or (= R3 Z1) Y3)
       (or (= X3 A3) Y3)
       (or (not Y3) (= Z3 A3))
       (or (not M3) (= O3 Y1))
       (or (= N1 D) M3)
       (or (not M3) (= N1 W))
       (or (= J1 A) M3)
       (or (not M3) (= J1 A2))
       (or (not M3) (= T1 Z))
       (or (= T1 F4) M3)
       (or (= Z1 G) M3)
       (or (not M3) (= Z1 Y))
       (or (= K3 O3) M3)
       (or (= T1 O1) U1)
       (or (not U1) (= V1 O1))
       (or (= X1 O3) U1)
       (or (not U1) (= X1 W1))
       (or (not K1) (= I1 L1))
       (or (= J1 I1) K1)
       (or (= M1 N1) K1)
       (or (not K1) (= M1 V))
       (or (not U) (= V 1))
       (or (not S) (= T 0))
       (or (not Q) (= R 0))
       (or (not O) (= P 0))
       (or (not O) (= N 0))
       (or (not H) (= G F))
       (or (not H) (= J I))
       (or (not E) (= D C))
       (or (= T2 J) E)
       (or (not E) (= T2 V2))
       (or (not B) (= R2 U2))
       (or (not B) (= A H4))
       (or (= T2 R2) B)
       (or G4 (= R2 K3))
       (or (not G4) (= F4 E4))
       (or (not G4) (= K3 S2))
       (or (not X) (= Z 0))
       (or (not X) (= W 1))
       (or (not X) (= Y 0))
       (or Q1 (= P1 O1))
       (or (not Q1) (= P1 R1))
       (or (not Q1) (= S1 T))
       (or Q1 (= S1 I1))
       (or (not Y2) (= W2 C3))
       (or Y2 (= X2 W2))
       (or (not Y2) (= G3 E3))
       (or Y2 (= I3 G3))
       (or P3 (= W3 V3))
       (or P3 (= T3 S1))
       (or (not P3) (= T3 S3))
       (or P3 (= A3 Z2))
       (or (not P3) (= N Z2))
       (or P3 (= X2 X1))
       (or (not P3) (= X2 Q3))
       (or (not P3) (= I3 P))
       (or P3 (= R3 I3))
       (or (not P3) (= V3 U3))
       (or (not B4) (= C4 X3))
       (or (not B4) (= W3 R))
       (or B4 (= W3 M1))
       (or B4 (= X3 P1))
       a!2))
      )
      (state H1
       D2
       G1
       Q2
       P3
       Y2
       Y3
       B4
       Q1
       K1
       U1
       M3
       G4
       B
       E
       H
       F1
       B1
       M
       D4
       P2
       N2
       L
       M2
       K
       E1
       K2
       D1
       I2
       C1
       G2
       W3
       M1
       R
       C4
       X3
       P1
       R3
       Z1
       A4
       Z3
       A3
       V3
       U3
       T3
       S1
       S3
       I3
       P
       X2
       X1
       Q3
       N
       Z2
       G3
       E3
       W2
       C3
       T2
       V2
       J
       R2
       U2
       K3
       S2
       C2
       O2
       E2
       L2
       J2
       H2
       F2
       B2
       T1
       F4
       Z
       N1
       D
       W
       J1
       A
       A2
       G
       Y
       O3
       Y1
       W1
       V1
       O1
       I1
       T
       R1
       V
       L1
       A1
       X
       U
       S
       Q
       O
       I
       F
       C
       H4
       E4
       B3
       D3
       F3
       H3
       J3
       L3
       N3)
    )
  )
)
(assert
  (forall ( (A Int) (B Bool) (C Int) (D Int) (E Bool) (F Int) (G Int) (H Bool) (I Int) (J Int) (K Int) (L Int) (M Int) (N Int) (O Bool) (P Int) (Q Bool) (R Int) (S Bool) (T Int) (U Bool) (V Int) (W Int) (X Bool) (Y Int) (Z Int) (A1 Int) (B1 Int) (C1 Int) (D1 Int) (E1 Int) (F1 Bool) (G1 Bool) (H1 Int) (I1 Int) (J1 Int) (K1 Bool) (L1 Int) (M1 Int) (N1 Int) (O1 Int) (P1 Int) (Q1 Bool) (R1 Int) (S1 Int) (T1 Int) (U1 Bool) (V1 Int) (W1 Int) (X1 Int) (Y1 Int) (Z1 Int) (A2 Int) (B2 Bool) (C2 Bool) (D2 Int) (E2 Int) (F2 Int) (G2 Int) (H2 Int) (I2 Int) (J2 Int) (K2 Int) (L2 Int) (M2 Int) (N2 Int) (O2 Bool) (P2 Bool) (Q2 Bool) (R2 Int) (S2 Int) (T2 Int) (U2 Int) (V2 Int) (W2 Int) (X2 Int) (Y2 Bool) (Z2 Int) (A3 Int) (B3 Bool) (C3 Int) (D3 Bool) (E3 Int) (F3 Bool) (G3 Int) (H3 Bool) (I3 Int) (J3 Bool) (K3 Int) (L3 Bool) (M3 Bool) (N3 Bool) (O3 Int) (P3 Bool) (Q3 Int) (R3 Int) (S3 Int) (T3 Int) (U3 Int) (V3 Int) (W3 Int) (X3 Int) (Y3 Bool) (Z3 Int) (A4 Int) (B4 Bool) (C4 Int) (D4 Bool) (E4 Int) (F4 Bool) (G4 Int) (H4 Int) (I4 Bool) (J4 Int) (K4 Int) (L4 Bool) (M4 Int) (N4 Int) (O4 Bool) (P4 Int) (Q4 Int) (R4 Int) (S4 Int) (T4 Int) (U4 Int) (V4 Bool) (W4 Int) (X4 Bool) (Y4 Int) (Z4 Bool) (A5 Int) (B5 Bool) (C5 Int) (D5 Bool) (E5 Int) (F5 Bool) (G5 Int) (H5 Bool) (I5 Bool) (J5 Int) (K5 Int) (L5 Int) (M5 Int) (N5 Int) (O5 Bool) (P5 Int) (Q5 Int) (R5 Int) (S5 Int) (T5 Bool) (U5 Int) (V5 Bool) (W5 Int) (X5 Int) (Y5 Bool) (Z5 Int) (A6 Int) (B6 Int) (C6 Int) (D6 Int) (E6 Int) (F6 Int) (G6 Int) (H6 Int) (I6 Int) (J6 Int) (K6 Int) (L6 Int) (M6 Int) (N6 Int) (O6 Int) (P6 Bool) (Q6 Bool) (R6 Int) (S6 Int) (T6 Int) (U6 Bool) (V6 Int) (W6 Int) (X6 Int) (Y6 Int) (Z6 Bool) (A7 Int) (B7 Int) (C7 Bool) (D7 Int) (E7 Int) (F7 Int) (G7 Bool) (H7 Int) (I7 Bool) (J7 Bool) (K7 Int) (L7 Int) (M7 Int) (N7 Int) (O7 Int) (P7 Int) (Q7 Int) (R7 Int) (S7 Int) (T7 Int) (U7 Int) (V7 Bool) (W7 Bool) (X7 Bool) (Y7 Int) (Z7 Int) (A8 Int) (B8 Bool) (C8 Int) (D8 Int) (E8 Bool) (F8 Int) (G8 Int) (H8 Int) (I8 Bool) (J8 Bool) (K8 Bool) (L8 Int) (M8 Int) (N8 Int) (O8 Bool) (P8 Int) ) 
    (=>
      (and
        (state H1
       D2
       G1
       Q2
       P3
       Y2
       Y3
       B4
       Q1
       K1
       U1
       M3
       O8
       B
       E
       H
       F1
       B1
       M
       D4
       P2
       N2
       L
       M2
       K
       E1
       K2
       D1
       I2
       C1
       G2
       W3
       M1
       R
       C4
       X3
       P1
       R3
       Z1
       A4
       Z3
       A3
       V3
       U3
       T3
       S1
       S3
       I3
       P
       X2
       X1
       Q3
       N
       Z2
       G3
       E3
       W2
       C3
       T2
       V2
       J
       R2
       U2
       K3
       S2
       C2
       O2
       E2
       L2
       J2
       H2
       F2
       B2
       T1
       N8
       Z
       N1
       D
       W
       J1
       A
       A2
       G
       Y
       O3
       Y1
       W1
       V1
       O1
       I1
       T
       R1
       V
       L1
       A1
       X
       U
       S
       Q
       O
       I
       F
       C
       P8
       M8
       B3
       D3
       F3
       H3
       J3
       L3
       N3)
        (let ((a!1 (= (or (and (not J8)
                       (not I8)
                       (not E8)
                       (not B8)
                       (not G7)
                       (not C7)
                       (not Z6)
                       (not U6)
                       (not O4)
                       (not L4)
                       (not I4)
                       (not F4))
                  (and (not J8)
                       (not I8)
                       (not E8)
                       (not B8)
                       (not G7)
                       (not C7)
                       (not Z6)
                       (not U6)
                       (not O4)
                       (not L4)
                       (not I4)
                       F4)
                  (and (not J8)
                       (not I8)
                       (not E8)
                       (not B8)
                       (not G7)
                       (not C7)
                       (not Z6)
                       (not U6)
                       (not O4)
                       (not L4)
                       I4
                       (not F4))
                  (and (not J8)
                       (not I8)
                       (not E8)
                       (not B8)
                       (not G7)
                       (not C7)
                       (not Z6)
                       (not U6)
                       (not O4)
                       L4
                       (not I4)
                       (not F4))
                  (and (not J8)
                       (not I8)
                       (not E8)
                       (not B8)
                       (not G7)
                       (not C7)
                       (not Z6)
                       (not U6)
                       O4
                       (not L4)
                       (not I4)
                       (not F4))
                  (and (not J8)
                       (not I8)
                       (not E8)
                       (not B8)
                       (not G7)
                       (not C7)
                       (not Z6)
                       U6
                       (not O4)
                       (not L4)
                       (not I4)
                       (not F4))
                  (and (not J8)
                       (not I8)
                       (not E8)
                       (not B8)
                       (not G7)
                       (not C7)
                       Z6
                       (not U6)
                       (not O4)
                       (not L4)
                       (not I4)
                       (not F4))
                  (and (not J8)
                       (not I8)
                       (not E8)
                       (not B8)
                       (not G7)
                       C7
                       (not Z6)
                       (not U6)
                       (not O4)
                       (not L4)
                       (not I4)
                       (not F4))
                  (and (not J8)
                       (not I8)
                       (not E8)
                       (not B8)
                       G7
                       (not C7)
                       (not Z6)
                       (not U6)
                       (not O4)
                       (not L4)
                       (not I4)
                       (not F4))
                  (and (not J8)
                       (not I8)
                       (not E8)
                       B8
                       (not G7)
                       (not C7)
                       (not Z6)
                       (not U6)
                       (not O4)
                       (not L4)
                       (not I4)
                       (not F4))
                  (and (not J8)
                       (not I8)
                       E8
                       (not B8)
                       (not G7)
                       (not C7)
                       (not Z6)
                       (not U6)
                       (not O4)
                       (not L4)
                       (not I4)
                       (not F4))
                  (and (not J8)
                       I8
                       (not E8)
                       (not B8)
                       (not G7)
                       (not C7)
                       (not Z6)
                       (not U6)
                       (not O4)
                       (not L4)
                       (not I4)
                       (not F4))
                  (and J8
                       (not I8)
                       (not E8)
                       (not B8)
                       (not G7)
                       (not C7)
                       (not Z6)
                       (not U6)
                       (not O4)
                       (not L4)
                       (not I4)
                       (not F4)))
              P6))
      (a!2 (= (or (and (not B)
                       (not E)
                       (not H)
                       (not K1)
                       (not Q1)
                       (not U1)
                       (not Y2)
                       (not M3)
                       (not P3)
                       (not Y3)
                       (not B4)
                       (not O8))
                  (and (not B)
                       (not E)
                       (not H)
                       (not K1)
                       (not Q1)
                       (not U1)
                       (not Y2)
                       (not M3)
                       (not P3)
                       (not Y3)
                       (not B4)
                       O8)
                  (and (not B)
                       (not E)
                       (not H)
                       (not K1)
                       (not Q1)
                       (not U1)
                       (not Y2)
                       (not M3)
                       (not P3)
                       (not Y3)
                       B4
                       (not O8))
                  (and (not B)
                       (not E)
                       (not H)
                       (not K1)
                       (not Q1)
                       (not U1)
                       (not Y2)
                       (not M3)
                       (not P3)
                       Y3
                       (not B4)
                       (not O8))
                  (and (not B)
                       (not E)
                       (not H)
                       (not K1)
                       (not Q1)
                       (not U1)
                       (not Y2)
                       (not M3)
                       P3
                       (not Y3)
                       (not B4)
                       (not O8))
                  (and (not B)
                       (not E)
                       (not H)
                       (not K1)
                       (not Q1)
                       (not U1)
                       (not Y2)
                       M3
                       (not P3)
                       (not Y3)
                       (not B4)
                       (not O8))
                  (and (not B)
                       (not E)
                       (not H)
                       (not K1)
                       (not Q1)
                       (not U1)
                       Y2
                       (not M3)
                       (not P3)
                       (not Y3)
                       (not B4)
                       (not O8))
                  (and (not B)
                       (not E)
                       (not H)
                       (not K1)
                       (not Q1)
                       U1
                       (not Y2)
                       (not M3)
                       (not P3)
                       (not Y3)
                       (not B4)
                       (not O8))
                  (and (not B)
                       (not E)
                       (not H)
                       (not K1)
                       Q1
                       (not U1)
                       (not Y2)
                       (not M3)
                       (not P3)
                       (not Y3)
                       (not B4)
                       (not O8))
                  (and (not B)
                       (not E)
                       (not H)
                       K1
                       (not Q1)
                       (not U1)
                       (not Y2)
                       (not M3)
                       (not P3)
                       (not Y3)
                       (not B4)
                       (not O8))
                  (and (not B)
                       (not E)
                       H
                       (not K1)
                       (not Q1)
                       (not U1)
                       (not Y2)
                       (not M3)
                       (not P3)
                       (not Y3)
                       (not B4)
                       (not O8))
                  (and (not B)
                       E
                       (not H)
                       (not K1)
                       (not Q1)
                       (not U1)
                       (not Y2)
                       (not M3)
                       (not P3)
                       (not Y3)
                       (not B4)
                       (not O8))
                  (and B
                       (not E)
                       (not H)
                       (not K1)
                       (not Q1)
                       (not U1)
                       (not Y2)
                       (not M3)
                       (not P3)
                       (not Y3)
                       (not B4)
                       (not O8)))
              F1))
      (a!3 (and (<= 1 N2) (= G2 0) (= I2 0) (= K2 0) (= M2 0)))
      (a!4 (and (<= 1 N2) (<= 1 (+ M2 K2 (* (- 1) I2) G2))))
      (a!5 (= (and (<= 1 N2) (<= 1 (+ M2 K2 I2 G2))) B5))
      (a!6 (= Q6 (and Q2 P6 (not (<= O6 0)))))
      (a!7 (or (not V4) (= (+ N2 (* (- 1) U4)) 1)))
      (a!8 (or (not V4) (= (+ G2 (* (- 1) L5)) (- 1))))
      (a!9 (or (not X4) (= (+ M2 K2 (* (- 1) W5)) 0)))
      (a!10 (or (not X4) (= (+ I2 G2 (* (- 1) Q5)) (- 1))))
      (a!11 (or (not X4) (= (+ N2 (* (- 1) W4)) 1)))
      (a!12 (or (not Z4) (= (+ N2 (* (- 1) Y4)) 1)))
      (a!13 (or (not Z4) (= (+ M2 (* (- 1) F6)) (- 1))))
      (a!14 (or (not B5) (= (+ M2 K2 I2 G2 (* (- 1) R5)) 0)))
      (a!15 (or (not B5) (= (+ N2 (* (- 1) A5)) 1)))
      (a!16 (or (not D5) (= (+ N2 (* (- 1) C5)) (- 1))))
      (a!17 (or (not D5) (= (+ M2 (* (- 1) G4)) 1)))
      (a!18 (or (not F5) (= (+ N2 (* (- 1) E5)) (- 1))))
      (a!19 (or (not F5) (= (+ I2 (* (- 1) J4)) 1)))
      (a!20 (or (not H5) (= (+ N2 (* (- 1) G5)) (- 1))))
      (a!21 (or (not H5) (= (+ K2 (* (- 1) M4)) 1)))
      (a!22 (or (not I5) (= (+ N2 (* (- 1) P4)) (- 1))))
      (a!23 (or (not I5) (= (+ G2 (* (- 1) Q4)) 1)))
      (a!24 (or (not O5) (= (+ M2 (* (- 1) B6)) (- 1))))
      (a!25 (or (not O5) (= (+ G2 (* (- 1) N5)) 1)))
      (a!26 (or (not T5) (= (+ M2 (* (- 1) E6)) (- 1))))
      (a!27 (or (not V5) (= (+ K2 I2 (* (- 1) U5)) 1)))
      (a!28 (or (not Y5) (= (+ M2 (* (- 1) D6)) (- 1)))))
  (and (= (<= 1 K2) H5)
       (= (<= 1 I2) F5)
       (= (<= 1 G2) I5)
       (= (<= 1 G2) O5)
       a!1
       a!2
       (= (or (not J7) (<= L7 K7)) I7)
       (= (or (not C2) (<= E2 D2)) B2)
       (= a!3 V4)
       (= a!3 Z4)
       (= a!4 X4)
       a!5
       (= T5 (and (= I2 1) (= K2 0)))
       (= V5 (<= 2 (+ K2 I2)))
       (= Y5 (and (= I2 0) (= K2 1)))
       a!6
       (= W7 V7)
       (= W7 K8)
       (= X7 Q6)
       (= X7 J7)
       (= K8 (<= 2 N7))
       (= D4 (<= 2 G2))
       (= D4 P2)
       (= Q2 C2)
       (= P2 O2)
       (= G1 Q2)
       (= T4 S4)
       (= T4 T7)
       (= K5 J5)
       (= K5 U7)
       (= J6 I6)
       (= L6 K6)
       (= N6 M6)
       (= K7 R6)
       (= N7 J6)
       (= N7 M7)
       (= P7 L6)
       (= P7 O7)
       (= R7 N6)
       (= R7 Q7)
       (= T7 S7)
       (= U7 L7)
       (= L8 H6)
       (= N2 E2)
       (= N2 L)
       (= M2 L2)
       (= M2 K)
       (= K2 J2)
       (= I2 H2)
       (= G2 F2)
       (= D2 R6)
       (= H1 D2)
       (= E1 K2)
       (= D1 I2)
       (= C1 G2)
       (= B1 M)
       (= M H6)
       (or (not O8) (= K3 S2))
       (or O8 (= R2 K3))
       (or (not F4) (= E4 G4))
       (or (not F4) (= C5 F7))
       (or F4 (= Y7 F7))
       (or F4 (= M2 E4))
       (or (not I4) (= H4 J4))
       (or (not I4) (= E5 Y7))
       (or I4 (= Z7 Y7))
       (or I4 (= I2 H4))
       (or (not L4) (= K4 M4))
       (or (not L4) (= G5 Z7))
       (or L4 (= Z7 N4))
       (or L4 (= K2 K4))
       (or (not O4) (= N4 P4))
       (or (not O4) (= R4 Q4))
       (or O4 (= N2 N4))
       (or O4 (= G2 R4))
       a!7
       a!8
       (or V4 (= N2 U4))
       (or V4 (= G2 L5))
       a!9
       a!10
       a!11
       (or (not X4) (= M5 0))
       (or (not X4) (= C6 0))
       (or X4 (= N2 W4))
       (or X4 (= M2 C6))
       (or X4 (= K2 W5))
       (or X4 (= I2 Q5))
       (or X4 (= G2 M5))
       a!12
       a!13
       (or Z4 (= N2 Y4))
       (or Z4 (= M2 F6))
       a!14
       a!15
       (or (not B5) (= P5 0))
       (or (not B5) (= A6 1))
       (or (not B5) (= G6 0))
       (or B5 (= N2 A5))
       (or B5 (= M2 G6))
       (or B5 (= K2 A6))
       (or B5 (= I2 R5))
       (or B5 (= G2 P5))
       a!16
       a!17
       (or D5 (= N2 C5))
       (or D5 (= M2 G4))
       a!18
       a!19
       (or F5 (= N2 E5))
       (or F5 (= I2 J4))
       a!20
       a!21
       (or H5 (= N2 G5))
       (or H5 (= K2 M4))
       a!22
       a!23
       (or I5 (= N2 P4))
       (or I5 (= G2 Q4))
       a!24
       a!25
       (or O5 (= M2 B6))
       (or O5 (= G2 N5))
       a!26
       (or (not T5) (= S5 0))
       (or T5 (= M2 E6))
       (or T5 (= I2 S5))
       a!27
       (or (not V5) (= Z5 1))
       (or V5 (= K2 Z5))
       (or V5 (= I2 U5))
       a!28
       (or (not Y5) (= X5 0))
       (or Y5 (= M2 D6))
       (or Y5 (= K2 X5))
       (or (not U6) (= S6 U5))
       (or U6 (= T6 S6))
       (or (not U6) (= V6 Z5))
       (or U6 (= V6 W6))
       (or (not Z6) (= Y6 E6))
       (or Z6 (= Y6 X6))
       (or (not Z6) (= A7 S5))
       (or Z6 (= A7 S6))
       (or (not C7) (= X6 F6))
       (or C7 (= B7 X6))
       (or (not C7) (= D7 Y4))
       (or C7 (= D7 E7))
       (or G7 (= E4 B7))
       (or G7 (= H4 T6))
       (or G7 (= K4 W6))
       (or (not G7) (= A5 E7))
       (or (not G7) (= T6 R5))
       (or (not G7) (= W6 A6))
       (or (not G7) (= B7 G6))
       (or G7 (= F7 E7))
       (or G7 (= H7 R4))
       (or (not G7) (= H7 P5))
       (or (not B8) (= U4 J5))
       (or (not B8) (= I6 L5))
       (or B8 (= A8 J5))
       (or B8 (= C8 I6))
       (or (not E8) (= S4 C6))
       (or (not E8) (= K6 Q5))
       (or (not E8) (= M6 W5))
       (or E8 (= A7 K6))
       (or E8 (= D7 A8))
       (or (not E8) (= A8 W4))
       (or (not E8) (= C8 M5))
       (or E8 (= D8 S4))
       (or E8 (= F8 C8))
       (or E8 (= G8 M6))
       (or I8 (= H7 F8))
       (or (not I8) (= D8 B6))
       (or (not I8) (= F8 N5))
       (or I8 (= H8 D8))
       (or J8 (= V6 G8))
       (or (not J8) (= G8 X5))
       (or (not J8) (= H8 D6))
       (or J8 (= H8 Y6))
       (or (not B4) (= C4 X3))
       (or B4 (= X3 P1))
       (or B4 (= W3 M1))
       (or (not B4) (= W3 R))
       (or (not Y3) (= Z3 A3))
       (or Y3 (= X3 A3))
       (or (not Y3) (= R3 A4))
       (or Y3 (= R3 Z1))
       (or P3 (= W3 V3))
       (or (not P3) (= V3 U3))
       (or (not P3) (= T3 S3))
       (or P3 (= T3 S1))
       (or P3 (= R3 I3))
       (or (not P3) (= I3 P))
       (or P3 (= A3 Z2))
       (or (not P3) (= X2 Q3))
       (or P3 (= X2 X1))
       (or (not P3) (= N Z2))
       (or (not M3) (= O3 Y1))
       (or M3 (= K3 O3))
       (or (not M3) (= Z1 Y))
       (or M3 (= Z1 G))
       (or M3 (= T1 N8))
       (or (not M3) (= T1 Z))
       (or (not M3) (= N1 W))
       (or M3 (= N1 D))
       (or (not M3) (= J1 A2))
       (or M3 (= J1 A))
       (or Y2 (= I3 G3))
       (or (not Y2) (= G3 E3))
       (or Y2 (= X2 W2))
       (or (not Y2) (= W2 C3))
       (or U1 (= X1 O3))
       (or (not U1) (= X1 W1))
       (or (not U1) (= V1 O1))
       (or U1 (= T1 O1))
       (or Q1 (= S1 I1))
       (or (not Q1) (= S1 T))
       (or (not Q1) (= P1 R1))
       (or Q1 (= P1 O1))
       (or K1 (= M1 N1))
       (or (not K1) (= M1 V))
       (or K1 (= J1 I1))
       (or (not K1) (= I1 L1))
       (or (not E) (= T2 V2))
       (or E (= T2 J))
       (or B (= T2 R2))
       (or (not B) (= R2 U2))
       (= (<= 1 M2) D5)))
      )
      (state R6
       K7
       Q6
       X7
       E8
       B8
       I8
       J8
       Z6
       U6
       C7
       G7
       F4
       I4
       L4
       O4
       P6
       H6
       L8
       K8
       W7
       U7
       K5
       T7
       T4
       N6
       R7
       L6
       P7
       J6
       N7
       G8
       V6
       X5
       D6
       H8
       Y6
       F8
       H7
       N5
       B6
       D8
       M6
       W5
       K6
       A7
       Q5
       C8
       M5
       A8
       D7
       W4
       C6
       S4
       I6
       L5
       J5
       U4
       Z7
       G5
       N4
       Y7
       E5
       F7
       C5
       J7
       V7
       L7
       S7
       Q7
       O7
       M7
       I7
       B7
       E4
       G6
       W6
       K4
       A6
       T6
       H4
       R5
       R4
       P5
       E7
       A5
       Y4
       F6
       X6
       S6
       S5
       E6
       Z5
       U5
       O6
       B5
       V5
       T5
       Y5
       X4
       P4
       Q4
       M4
       J4
       G4
       V4
       O5
       Z4
       D5
       F5
       H5
       I5)
    )
  )
)
(assert
  (forall ( (A Int) (B Bool) (C Int) (D Int) (E Bool) (F Int) (G Int) (H Bool) (I Int) (J Int) (K Int) (L Int) (M Int) (N Int) (O Bool) (P Int) (Q Bool) (R Int) (S Bool) (T Int) (U Bool) (V Int) (W Int) (X Bool) (Y Int) (Z Int) (A1 Int) (B1 Int) (C1 Int) (D1 Int) (E1 Int) (F1 Bool) (G1 Bool) (H1 Int) (I1 Int) (J1 Int) (K1 Bool) (L1 Int) (M1 Int) (N1 Int) (O1 Int) (P1 Int) (Q1 Bool) (R1 Int) (S1 Int) (T1 Int) (U1 Bool) (V1 Int) (W1 Int) (X1 Int) (Y1 Int) (Z1 Int) (A2 Int) (B2 Bool) (C2 Bool) (D2 Int) (E2 Int) (F2 Int) (G2 Int) (H2 Int) (I2 Int) (J2 Int) (K2 Int) (L2 Int) (M2 Int) (N2 Int) (O2 Bool) (P2 Bool) (Q2 Bool) (R2 Int) (S2 Int) (T2 Int) (U2 Int) (V2 Int) (W2 Int) (X2 Int) (Y2 Bool) (Z2 Int) (A3 Int) (B3 Bool) (C3 Int) (D3 Bool) (E3 Int) (F3 Bool) (G3 Int) (H3 Bool) (I3 Int) (J3 Bool) (K3 Int) (L3 Bool) (M3 Bool) (N3 Bool) (O3 Int) (P3 Bool) (Q3 Int) (R3 Int) (S3 Int) (T3 Int) (U3 Int) (V3 Int) (W3 Int) (X3 Int) (Y3 Bool) (Z3 Int) (A4 Int) (B4 Bool) (C4 Int) (D4 Bool) (E4 Int) (F4 Int) (G4 Bool) (H4 Int) ) 
    (=>
      (and
        (state H1
       D2
       G1
       Q2
       P3
       Y2
       Y3
       B4
       Q1
       K1
       U1
       M3
       G4
       B
       E
       H
       F1
       B1
       M
       D4
       P2
       N2
       L
       M2
       K
       E1
       K2
       D1
       I2
       C1
       G2
       W3
       M1
       R
       C4
       X3
       P1
       R3
       Z1
       A4
       Z3
       A3
       V3
       U3
       T3
       S1
       S3
       I3
       P
       X2
       X1
       Q3
       N
       Z2
       G3
       E3
       W2
       C3
       T2
       V2
       J
       R2
       U2
       K3
       S2
       C2
       O2
       E2
       L2
       J2
       H2
       F2
       B2
       T1
       F4
       Z
       N1
       D
       W
       J1
       A
       A2
       G
       Y
       O3
       Y1
       W1
       V1
       O1
       I1
       T
       R1
       V
       L1
       A1
       X
       U
       S
       Q
       O
       I
       F
       C
       H4
       E4
       B3
       D3
       F3
       H3
       J3
       L3
       N3)
        (not B2)
      )
      false
    )
  )
)

(check-sat)
(exit)
